c Cardinality constraint <=k(x_1,...,x_n) for k = 4 and n = 7.
p cnf 31 50
-1 8 0
-9 0
-10 0
-11 0
-2 12 0
-8 12 0
-2 -8 13 0
-9 13 0
-2 -9 14 0
-10 14 0
-2 -10 15 0
-11 15 0
-2 -11 0
-3 16 0
-12 16 0
-3 -12 17 0
-13 17 0
-3 -13 18 0
-14 18 0
-3 -14 19 0
-15 19 0
-3 -15 0
-4 20 0
-16 20 0
-4 -16 21 0
-17 21 0
-4 -17 22 0
-18 22 0
-4 -18 23 0
-19 23 0
-4 -19 0
-5 24 0
-20 24 0
-5 -20 25 0
-21 25 0
-5 -21 26 0
-22 26 0
-5 -22 27 0
-23 27 0
-5 -23 0
-6 28 0
-24 28 0
-6 -24 29 0
-25 29 0
-6 -25 30 0
-26 30 0
-6 -26 31 0
-27 31 0
-6 -27 0
-7 -31 0
